\* Robinson_from_Center_Matrix *\
Minimize
OBJ: __dummy
Subject To
_C1: distance_0_0 = 0
_C10: - distance_2_3 + distance_3_2 = 0
_C100: - distance_2_3 + distance_3_6 <= 0
_C101: distance_3_5 - distance_3_6 <= 0
_C102: - distance_3_6 + distance_4_6 <= 0
_C103: distance_3_4 - distance_4_6 <= -1
_C104: - distance_3_5 + distance_5_6 <= 0
_C105: distance_4_5 - distance_4_6 <= 0
_C106: - distance_4_6 + distance_5_6 <= 0
_C107: distance_4_4 - distance_4_6 <= -1
_C108: - distance_4_5 + distance_5_6 <= 0
_C109: distance_5_5 - distance_5_6 <= 0
_C11: distance_4_4 = 0
_C110: - distance_5_6 + distance_6_6 <= 0
_C111: distance_5_5 - distance_5_6 <= -1
_C112: - distance_5_6 + distance_6_6 <= 0
_C113: - distance_1_0 + distance_1_1 <= 0
_C114: distance_0_0 - distance_1_0 <= 0
_C115: - distance_0_1 + distance_1_1 <= -1
_C116: distance_0_0 - distance_0_1 <= 0
_C117: - distance_2_0 + distance_2_1 <= 0
_C118: distance_1_0 - distance_2_0 <= 0
_C119: - distance_0_1 + distance_1_2 <= -1
_C12: - distance_0_4 + distance_4_0 = 0
_C120: distance_0_0 - distance_0_2 <= 0
_C121: - distance_2_1 + distance_2_2 <= 0
_C122: distance_1_1 - distance_2_1 <= 0
_C123: - distance_1_2 + distance_2_2 <= -1
_C124: distance_1_1 - distance_1_2 <= 0
_C125: - distance_3_0 + distance_3_1 <= 0
_C126: distance_2_0 - distance_3_0 <= 0
_C127: - distance_0_1 + distance_1_3 <= -1
_C128: distance_0_0 - distance_0_3 <= 0
_C129: - distance_3_1 + distance_3_2 <= 0
_C13: - distance_1_4 + distance_4_1 = 0
_C130: distance_2_1 - distance_3_1 <= 0
_C131: - distance_1_3 + distance_3_3 <= -1
_C132: distance_1_2 - distance_2_3 <= 0
_C133: - distance_3_2 + distance_3_3 <= 0
_C134: distance_2_2 - distance_3_2 <= 0
_C135: - distance_2_3 + distance_3_3 <= -1
_C136: distance_2_2 - distance_2_3 <= 0
_C137: - distance_4_0 + distance_4_1 <= 0
_C138: distance_3_0 - distance_4_0 <= 0
_C139: - distance_0_3 + distance_3_4 <= -1
_C14: - distance_2_4 + distance_4_2 = 0
_C140: distance_0_2 - distance_2_4 <= 0
_C141: - distance_4_1 + distance_4_2 <= 0
_C142: distance_3_1 - distance_4_1 <= 0
_C143: - distance_1_3 + distance_3_4 <= -1
_C144: distance_1_2 - distance_2_4 <= 0
_C145: - distance_4_2 + distance_4_3 <= 0
_C146: distance_3_2 - distance_4_2 <= 0
_C147: - distance_2_3 + distance_3_4 <= -1
_C148: distance_2_2 - distance_2_4 <= 0
_C149: - distance_4_3 + distance_4_4 <= 0
_C15: - distance_3_4 + distance_4_3 = 0
_C150: distance_3_3 - distance_4_3 <= 0
_C151: - distance_3_4 + distance_4_4 <= -1
_C152: distance_3_3 - distance_3_4 <= 0
_C153: - distance_5_0 + distance_5_1 <= 0
_C154: distance_4_0 - distance_5_0 <= 0
_C155: - distance_0_4 + distance_4_5 <= -1
_C156: distance_0_3 - distance_3_5 <= 0
_C157: - distance_5_1 + distance_5_2 <= 0
_C158: distance_4_1 - distance_5_1 <= 0
_C159: - distance_1_4 + distance_4_5 <= -1
_C16: distance_5_5 = 0
_C160: distance_1_3 - distance_3_5 <= 0
_C161: - distance_5_2 + distance_5_3 <= 0
_C162: distance_4_2 - distance_5_2 <= 0
_C163: - distance_2_4 + distance_4_5 <= -1
_C164: distance_2_3 - distance_3_5 <= 0
_C165: - distance_5_3 + distance_5_4 <= 0
_C166: distance_4_3 - distance_5_3 <= 0
_C167: - distance_3_4 + distance_4_5 <= -1
_C168: distance_3_3 - distance_3_5 <= 0
_C169: - distance_5_4 + distance_5_5 <= 0
_C17: - distance_0_5 + distance_5_0 = 0
_C170: distance_4_4 - distance_5_4 <= 0
_C171: - distance_4_5 + distance_5_5 <= -1
_C172: distance_4_4 - distance_4_5 <= 0
_C173: - distance_6_0 + distance_6_1 <= 0
_C174: distance_5_0 - distance_6_0 <= 0
_C175: - distance_0_4 + distance_4_6 <= -1
_C176: distance_0_3 - distance_3_6 <= 0
_C177: - distance_6_1 + distance_6_2 <= 0
_C178: distance_5_1 - distance_6_1 <= 0
_C179: - distance_1_5 + distance_5_6 <= -1
_C18: - distance_1_5 + distance_5_1 = 0
_C180: distance_1_4 - distance_4_6 <= 0
_C181: - distance_6_2 + distance_6_3 <= 0
_C182: distance_5_2 - distance_6_2 <= 0
_C183: - distance_2_5 + distance_5_6 <= -1
_C184: distance_2_4 - distance_4_6 <= 0
_C185: - distance_6_3 + distance_6_4 <= 0
_C186: distance_5_3 - distance_6_3 <= 0
_C187: - distance_3_5 + distance_5_6 <= -1
_C188: distance_3_4 - distance_4_6 <= 0
_C189: - distance_6_4 + distance_6_5 <= 0
_C19: - distance_2_5 + distance_5_2 = 0
_C190: distance_5_4 - distance_6_4 <= 0
_C191: - distance_4_5 + distance_5_6 <= -1
_C192: distance_4_4 - distance_4_6 <= 0
_C193: - distance_6_5 + distance_6_6 <= 0
_C194: distance_5_5 - distance_6_5 <= 0
_C195: - distance_5_6 + distance_6_6 <= -1
_C196: distance_5_5 - distance_5_6 <= 0
_C2: distance_1_1 = 0
_C20: - distance_3_5 + distance_5_3 = 0
_C21: - distance_4_5 + distance_5_4 = 0
_C22: distance_6_6 = 0
_C23: - distance_0_6 + distance_6_0 = 0
_C24: - distance_1_6 + distance_6_1 = 0
_C25: - distance_2_6 + distance_6_2 = 0
_C26: - distance_3_6 + distance_6_3 = 0
_C27: - distance_4_6 + distance_6_4 = 0
_C28: - distance_5_6 + distance_6_5 = 0
_C29: distance_0_0 - distance_0_1 <= 0
_C3: - distance_0_1 + distance_1_0 = 0
_C30: - distance_0_1 + distance_1_1 <= 0
_C31: distance_0_0 - distance_0_1 <= -1
_C32: - distance_0_1 + distance_1_1 <= 0
_C33: distance_0_1 - distance_0_2 <= 0
_C34: - distance_0_2 + distance_1_2 <= 0
_C35: distance_0_0 - distance_0_2 <= -1
_C36: - distance_0_1 + distance_1_2 <= 0
_C37: distance_1_1 - distance_1_2 <= 0
_C38: - distance_1_2 + distance_2_2 <= 0
_C39: distance_1_1 - distance_1_2 <= -1
_C4: distance_2_2 = 0
_C40: - distance_1_2 + distance_2_2 <= 0
_C41: distance_0_2 - distance_0_3 <= 0
_C42: - distance_0_3 + distance_1_3 <= 0
_C43: distance_0_0 - distance_0_3 <= -1
_C44: - distance_0_1 + distance_1_3 <= 0
_C45: distance_1_2 - distance_1_3 <= 0
_C46: - distance_1_3 + distance_2_3 <= 0
_C47: distance_1_2 - distance_2_3 <= -1
_C48: - distance_1_3 + distance_3_3 <= 0
_C49: distance_2_2 - distance_2_3 <= 0
_C5: - distance_0_2 + distance_2_0 = 0
_C50: - distance_2_3 + distance_3_3 <= 0
_C51: distance_2_2 - distance_2_3 <= -1
_C52: - distance_2_3 + distance_3_3 <= 0
_C53: distance_0_3 - distance_0_4 <= 0
_C54: - distance_0_4 + distance_1_4 <= 0
_C55: distance_0_0 - distance_0_4 <= -1
_C56: - distance_0_1 + distance_1_4 <= 0
_C57: distance_1_3 - distance_1_4 <= 0
_C58: - distance_1_4 + distance_2_4 <= 0
_C59: distance_1_2 - distance_2_4 <= -1
_C6: - distance_1_2 + distance_2_1 = 0
_C60: - distance_1_3 + distance_3_4 <= 0
_C61: distance_2_3 - distance_2_4 <= 0
_C62: - distance_2_4 + distance_3_4 <= 0
_C63: distance_2_2 - distance_2_4 <= -1
_C64: - distance_2_3 + distance_3_4 <= 0
_C65: distance_3_3 - distance_3_4 <= 0
_C66: - distance_3_4 + distance_4_4 <= 0
_C67: distance_3_3 - distance_3_4 <= -1
_C68: - distance_3_4 + distance_4_4 <= 0
_C69: distance_0_4 - distance_0_5 <= 0
_C7: distance_3_3 = 0
_C70: - distance_0_5 + distance_1_5 <= 0
_C71: distance_0_0 - distance_0_5 <= -1
_C72: - distance_0_1 + distance_1_5 <= 0
_C73: distance_1_4 - distance_1_5 <= 0
_C74: - distance_1_5 + distance_2_5 <= 0
_C75: distance_1_2 - distance_2_5 <= -1
_C76: - distance_1_3 + distance_3_5 <= 0
_C77: distance_2_4 - distance_2_5 <= 0
_C78: - distance_2_5 + distance_3_5 <= 0
_C79: distance_2_2 - distance_2_5 <= -1
_C8: - distance_0_3 + distance_3_0 = 0
_C80: - distance_2_3 + distance_3_5 <= 0
_C81: distance_3_4 - distance_3_5 <= 0
_C82: - distance_3_5 + distance_4_5 <= 0
_C83: distance_3_3 - distance_3_5 <= -1
_C84: - distance_3_4 + distance_4_5 <= 0
_C85: distance_4_4 - distance_4_5 <= 0
_C86: - distance_4_5 + distance_5_5 <= 0
_C87: distance_4_4 - distance_4_5 <= -1
_C88: - distance_4_5 + distance_5_5 <= 0
_C89: distance_0_5 - distance_0_6 <= 0
_C9: - distance_1_3 + distance_3_1 = 0
_C90: - distance_0_6 + distance_1_6 <= 0
_C91: distance_0_0 - distance_0_6 <= -1
_C92: - distance_0_1 + distance_1_6 <= 0
_C93: distance_1_5 - distance_1_6 <= 0
_C94: - distance_1_6 + distance_2_6 <= 0
_C95: distance_1_2 - distance_2_6 <= -1
_C96: - distance_1_3 + distance_3_6 <= 0
_C97: distance_2_5 - distance_2_6 <= 0
_C98: - distance_2_6 + distance_3_6 <= 0
_C99: distance_2_2 - distance_2_6 <= -1
Bounds
 __dummy = 0
End
